************************************************************************
file with basedata            : j60_31.bas
initial value random generator: 294608586
************************************************************************
projects                      :  1
jobs (incl. supersource/sink ):  62
horizon                       :  333
RESOURCES
  - renewable                 :  4   R
  - nonrenewable              :  0   N
  - doubly constrained        :  0   D
************************************************************************
PROJECT INFORMATION:
pronr.  #jobs rel.date duedate tardcost  MPM-Time
    1     60      0       76       32       76
************************************************************************
PRECEDENCE RELATIONS:
jobnr.    #modes  #successors   successors
   1        1          3           2   3   4
   2        1          3          10  13  16
   3        1          2           5   6
   4        1          1          29
   5        1          2          17  60
   6        1          3           7  14  19
   7        1          3           8   9  15
   8        1          1          39
   9        1          3          11  12  20
  10        1          1          53
  11        1          2          30  58
  12        1          2          17  48
  13        1          3          18  27  36
  14        1          3          22  23  31
  15        1          2          21  26
  16        1          3          24  38  55
  17        1          3          41  49  56
  18        1          2          31  51
  19        1          1          28
  20        1          3          25  33  34
  21        1          1          58
  22        1          2          42  46
  23        1          3          32  35  57
  24        1          1          37
  25        1          1          43
  26        1          2          35  49
  27        1          1          61
  28        1          1          40
  29        1          1          45
  30        1          1          54
  31        1          1          48
  32        1          1          60
  33        1          1          44
  34        1          2          44  45
  35        1          2          51  55
  36        1          1          58
  37        1          1          44
  38        1          1          54
  39        1          1          40
  40        1          1          50
  41        1          1          51
  42        1          1          59
  43        1          1          52
  44        1          1          57
  45        1          1          48
  46        1          1          47
  47        1          1          55
  48        1          1          50
  49        1          1          59
  50        1          1          52
  51        1          1          54
  52        1          1          57
  53        1          1          56
  54        1          1          59
  55        1          1          56
  56        1          1          61
  57        1          1          60
  58        1          1          61
  59        1          1          62
  60        1          1          62
  61        1          1          62
  62        1          0        
************************************************************************
REQUESTS/DURATIONS:
jobnr. mode duration  R 1  R 2  R 3  R 4
------------------------------------------------------------------------
  1      1     0       0    0    0    0
  2      1     4       6    6    7    5
  3      1     5       1    8   10    7
  4      1    10       3    6   10    9
  5      1     6       5    2    2    2
  6      1    10       6    9    9   10
  7      1     8       7    1    6    5
  8      1     1       8    1    6    5
  9      1     7       8   10    7    8
 10      1     1      10    8    3   10
 11      1     1       8    8    6    2
 12      1     9       6   10    1    4
 13      1     6       3    2   10    2
 14      1     8       6    6    5    4
 15      1     3       8    1    1    5
 16      1     3       6    5    7    1
 17      1     8       7    1    3    1
 18      1     2      10    3    8    2
 19      1     5       9    9    8    7
 20      1     3       6    9   10    5
 21      1     2      10    1    9    4
 22      1     2       4    4    8    2
 23      1     2       3    6    3    3
 24      1     8      10   10    1    6
 25      1     6       7    9    2    6
 26      1     9       8    9    5    3
 27      1     3       5   10    5   10
 28      1    10      10    2    4    1
 29      1     7       1    8   10    9
 30      1     7       1    2    7    1
 31      1     7       9   10   10    7
 32      1     9       8    7    7    1
 33      1     8       9    3    2    6
 34      1     1       3    6    3    1
 35      1     5       7    5    6   10
 36      1     8       6    2    3    2
 37      1     7       2    8   10    3
 38      1     5       9    6    7    5
 39      1     1       2    5    5    5
 40      1     9       4   10    6    4
 41      1     2       1    4    6   10
 42      1     2       1    2    8    1
 43      1     5       6    6    1   10
 44      1     6       1    4    5    2
 45      1     7       8    4    4    6
 46      1     3       7    2    5    2
 47      1     6       6   10    4   10
 48      1     4       8   10   10    5
 49      1     3       6    3    4    8
 50      1     7       9    8    9    2
 51      1     6       3    2    3    2
 52      1     9       5    3    5    2
 53      1     1       1    1    3    4
 54      1     8       4    4    5    4
 55      1     9       2   10    4   10
 56      1     6      10    3    3    1
 57      1    10      10    1    4    7
 58      1     2       4    3    9    3
 59      1    10       9    4    1    3
 60      1     5       8    9    9    3
 61      1     6       7    9    2    5
 62      1     0       0    0    0    0
************************************************************************
RESOURCEAVAILABILITIES:
  R 1  R 2  R 3  R 4
   46   49   42   35
************************************************************************
